Problem:    america
Rows:       135
Columns:    143 (132 integer, 132 binary)
Non-zeros:  726
Status:     INTEGER OPTIMAL
Objective:  total = 14054 (MINimum)

   No.   Row name        Activity     Lower bound   Upper bound
------ ------------    ------------- ------------- -------------
     1 total                   14054                             
     2 leave[1]                    1             1             = 
     3 leave[2]                    1             1             = 
     4 leave[3]                    1             1             = 
     5 leave[4]                    1             1             = 
     6 leave[5]                    1             1             = 
     7 leave[6]                    1             1             = 
     8 leave[7]                    1             1             = 
     9 leave[8]                    1             1             = 
    10 leave[9]                    1             1             = 
    11 leave[10]                   1             1             = 
    12 leave[11]                   1             1             = 
    13 leave[12]                   1             1             = 
    14 enter[1]                    1             1             = 
    15 enter[2]                    1             1             = 
    16 enter[3]                    1             1             = 
    17 enter[4]                    1             1             = 
    18 enter[5]                    1             1             = 
    19 enter[6]                    1             1             = 
    20 enter[7]                    1             1             = 
    21 enter[8]                    1             1             = 
    22 enter[9]                    1             1             = 
    23 enter[10]                   1             1             = 
    24 enter[11]                   1             1             = 
    25 enter[12]                   1             1             = 
    26 noSubTour[1,2]
                                  -2                          11 
    27 noSubTour[1,3]
                                 -10                          11 
    28 noSubTour[1,4]
                                  11                          11 
    29 noSubTour[1,5]
                                  -6                          11 
    30 noSubTour[1,6]
                                  -5                          11 
    31 noSubTour[1,7]
                                  -8                          11 
    32 noSubTour[1,8]
                                 -11                          11 
    33 noSubTour[1,9]
                                  -4                          11 
    34 noSubTour[1,10]
                                  -9                          11 
    35 noSubTour[1,12]
                                  -7                          11 
    36 noSubTour[2,1]
                                   2                          11 
    37 noSubTour[2,3]
                                  -8                          11 
    38 noSubTour[2,4]
                                   1                          11 
    39 noSubTour[2,5]
                                  -4                          11 
    40 noSubTour[2,6]
                                  -3                          11 
    41 noSubTour[2,7]
                                  -6                          11 
    42 noSubTour[2,8]
                                  -9                          11 
    43 noSubTour[2,9]
                                  10                          11 
    44 noSubTour[2,10]
                                  -7                          11 
    45 noSubTour[2,12]
                                  -5                          11 
    46 noSubTour[3,1]
                                  10                          11 
    47 noSubTour[3,2]
                                   8                          11 
    48 noSubTour[3,4]
                                   9                          11 
    49 noSubTour[3,5]
                                   4                          11 
    50 noSubTour[3,6]
                                   5                          11 
    51 noSubTour[3,7]
                                   2                          11 
    52 noSubTour[3,8]
                                  11                          11 
    53 noSubTour[3,9]
                                   6                          11 
    54 noSubTour[3,10]
                                   1                          11 
    55 noSubTour[3,12]
                                   3                          11 
    56 noSubTour[4,1]
                                   1                          11 
    57 noSubTour[4,2]
                                  11                          11 
    58 noSubTour[4,3]
                                  -9                          11 
    59 noSubTour[4,5]
                                  -5                          11 
    60 noSubTour[4,6]
                                  -4                          11 
    61 noSubTour[4,7]
                                  -7                          11 
    62 noSubTour[4,8]
                                 -10                          11 
    63 noSubTour[4,9]
                                  -3                          11 
    64 noSubTour[4,10]
                                  -8                          11 
    65 noSubTour[4,12]
                                  -6                          11 
    66 noSubTour[5,1]
                                   6                          11 
    67 noSubTour[5,2]
                                   4                          11 
    68 noSubTour[5,3]
                                  -4                          11 
    69 noSubTour[5,4]
                                   5                          11 
    70 noSubTour[5,6]
                                   1                          11 
    71 noSubTour[5,7]
                                  -2                          11 
    72 noSubTour[5,8]
                                  -5                          11 
    73 noSubTour[5,9]
                                   2                          11 
    74 noSubTour[5,10]
                                  -3                          11 
    75 noSubTour[5,12]
                                  11                          11 
    76 noSubTour[6,1]
                                   5                          11 
    77 noSubTour[6,2]
                                   3                          11 
    78 noSubTour[6,3]
                                  -5                          11 
    79 noSubTour[6,4]
                                   4                          11 
    80 noSubTour[6,5]
                                  11                          11 
    81 noSubTour[6,7]
                                  -3                          11 
    82 noSubTour[6,8]
                                  -6                          11 
    83 noSubTour[6,9]
                                   1                          11 
    84 noSubTour[6,10]
                                  -4                          11 
    85 noSubTour[6,12]
                                  -2                          11 
    86 noSubTour[7,1]
                                   8                          11 
    87 noSubTour[7,2]
                                   6                          11 
    88 noSubTour[7,3]
                                  -2                          11 
    89 noSubTour[7,4]
                                   7                          11 
    90 noSubTour[7,5]
                                   2                          11 
    91 noSubTour[7,6]
                                   3                          11 
    92 noSubTour[7,8]
                                  -3                          11 
    93 noSubTour[7,9]
                                   4                          11 
    94 noSubTour[7,10]
                                  11                          11 
    95 noSubTour[7,12]
                                   1                          11 
    96 noSubTour[8,1]
                                  11                          11 
    97 noSubTour[8,2]
                                   9                          11 
    98 noSubTour[8,3]
                                   1                          11 
    99 noSubTour[8,4]
                                  10                          11 
   100 noSubTour[8,5]
                                   5                          11 
   101 noSubTour[8,6]
                                   6                          11 
   102 noSubTour[8,7]
                                   3                          11 
   103 noSubTour[8,9]
                                   7                          11 
   104 noSubTour[8,10]
                                   2                          11 
   105 noSubTour[8,12]
                                   4                          11 
   106 noSubTour[9,1]
                                   4                          11 
   107 noSubTour[9,2]
                                   2                          11 
   108 noSubTour[9,3]
                                  -6                          11 
   109 noSubTour[9,4]
                                   3                          11 
   110 noSubTour[9,5]
                                  -2                          11 
   111 noSubTour[9,6]
                                  11                          11 
   112 noSubTour[9,7]
                                  -4                          11 
   113 noSubTour[9,8]
                                  -7                          11 
   114 noSubTour[9,10]
                                  -5                          11 
   115 noSubTour[9,12]
                                  -3                          11 
   116 noSubTour[10,1]
                                   9                          11 
   117 noSubTour[10,2]
                                   7                          11 
   118 noSubTour[10,3]
                                  11                          11 
   119 noSubTour[10,4]
                                   8                          11 
   120 noSubTour[10,5]
                                   3                          11 
   121 noSubTour[10,6]
                                   4                          11 
   122 noSubTour[10,7]
                                   1                          11 
   123 noSubTour[10,8]
                                  -2                          11 
   124 noSubTour[10,9]
                                   5                          11 
   125 noSubTour[10,12]
                                   2                          11 
   126 noSubTour[12,1]
                                   7                          11 
   127 noSubTour[12,2]
                                   5                          11 
   128 noSubTour[12,3]
                                  -3                          11 
   129 noSubTour[12,4]
                                   6                          11 
   130 noSubTour[12,5]
                                   1                          11 
   131 noSubTour[12,6]
                                   2                          11 
   132 noSubTour[12,7]
                                  11                          11 
   133 noSubTour[12,8]
                                  -4                          11 
   134 noSubTour[12,9]
                                   3                          11 
   135 noSubTour[12,10]
                                  -2                          11 

   No. Column name       Activity     Lower bound   Upper bound
------ ------------    ------------- ------------- -------------
     1 x[1,2]       *              0             0             1 
     2 x[1,3]       *              0             0             1 
     3 x[1,4]       *              1             0             1 
     4 x[1,5]       *              0             0             1 
     5 x[1,6]       *              0             0             1 
     6 x[1,7]       *              0             0             1 
     7 x[1,8]       *              0             0             1 
     8 x[1,9]       *              0             0             1 
     9 x[1,10]      *              0             0             1 
    10 x[1,11]      *              0             0             1 
    11 x[1,12]      *              0             0             1 
    12 x[2,1]       *              0             0             1 
    13 x[2,3]       *              0             0             1 
    14 x[2,4]       *              0             0             1 
    15 x[2,5]       *              0             0             1 
    16 x[2,6]       *              0             0             1 
    17 x[2,7]       *              0             0             1 
    18 x[2,8]       *              0             0             1 
    19 x[2,9]       *              1             0             1 
    20 x[2,10]      *              0             0             1 
    21 x[2,11]      *              0             0             1 
    22 x[2,12]      *              0             0             1 
    23 x[3,1]       *              0             0             1 
    24 x[3,2]       *              0             0             1 
    25 x[3,4]       *              0             0             1 
    26 x[3,5]       *              0             0             1 
    27 x[3,6]       *              0             0             1 
    28 x[3,7]       *              0             0             1 
    29 x[3,8]       *              1             0             1 
    30 x[3,9]       *              0             0             1 
    31 x[3,10]      *              0             0             1 
    32 x[3,11]      *              0             0             1 
    33 x[3,12]      *              0             0             1 
    34 x[4,1]       *              0             0             1 
    35 x[4,2]       *              1             0             1 
    36 x[4,3]       *              0             0             1 
    37 x[4,5]       *              0             0             1 
    38 x[4,6]       *              0             0             1 
    39 x[4,7]       *              0             0             1 
    40 x[4,8]       *              0             0             1 
    41 x[4,9]       *              0             0             1 
    42 x[4,10]      *              0             0             1 
    43 x[4,11]      *              0             0             1 
    44 x[4,12]      *              0             0             1 
    45 x[5,1]       *              0             0             1 
    46 x[5,2]       *              0             0             1 
    47 x[5,3]       *              0             0             1 
    48 x[5,4]       *              0             0             1 
    49 x[5,6]       *              0             0             1 
    50 x[5,7]       *              0             0             1 
    51 x[5,8]       *              0             0             1 
    52 x[5,9]       *              0             0             1 
    53 x[5,10]      *              0             0             1 
    54 x[5,11]      *              0             0             1 
    55 x[5,12]      *              1             0             1 
    56 x[6,1]       *              0             0             1 
    57 x[6,2]       *              0             0             1 
    58 x[6,3]       *              0             0             1 
    59 x[6,4]       *              0             0             1 
    60 x[6,5]       *              1             0             1 
    61 x[6,7]       *              0             0             1 
    62 x[6,8]       *              0             0             1 
    63 x[6,9]       *              0             0             1 
    64 x[6,10]      *              0             0             1 
    65 x[6,11]      *              0             0             1 
    66 x[6,12]      *              0             0             1 
    67 x[7,1]       *              0             0             1 
    68 x[7,2]       *              0             0             1 
    69 x[7,3]       *              0             0             1 
    70 x[7,4]       *              0             0             1 
    71 x[7,5]       *              0             0             1 
    72 x[7,6]       *              0             0             1 
    73 x[7,8]       *              0             0             1 
    74 x[7,9]       *              0             0             1 
    75 x[7,10]      *              1             0             1 
    76 x[7,11]      *              0             0             1 
    77 x[7,12]      *              0             0             1 
    78 x[8,1]       *              0             0             1 
    79 x[8,2]       *              0             0             1 
    80 x[8,3]       *              0             0             1 
    81 x[8,4]       *              0             0             1 
    82 x[8,5]       *              0             0             1 
    83 x[8,6]       *              0             0             1 
    84 x[8,7]       *              0             0             1 
    85 x[8,9]       *              0             0             1 
    86 x[8,10]      *              0             0             1 
    87 x[8,11]      *              1             0             1 
    88 x[8,12]      *              0             0             1 
    89 x[9,1]       *              0             0             1 
    90 x[9,2]       *              0             0             1 
    91 x[9,3]       *              0             0             1 
    92 x[9,4]       *              0             0             1 
    93 x[9,5]       *              0             0             1 
    94 x[9,6]       *              1             0             1 
    95 x[9,7]       *              0             0             1 
    96 x[9,8]       *              0             0             1 
    97 x[9,10]      *              0             0             1 
    98 x[9,11]      *              0             0             1 
    99 x[9,12]      *              0             0             1 
   100 x[10,1]      *              0             0             1 
   101 x[10,2]      *              0             0             1 
   102 x[10,3]      *              1             0             1 
   103 x[10,4]      *              0             0             1 
   104 x[10,5]      *              0             0             1 
   105 x[10,6]      *              0             0             1 
   106 x[10,7]      *              0             0             1 
   107 x[10,8]      *              0             0             1 
   108 x[10,9]      *              0             0             1 
   109 x[10,11]     *              0             0             1 
   110 x[10,12]     *              0             0             1 
   111 x[11,1]      *              1             0             1 
   112 x[11,2]      *              0             0             1 
   113 x[11,3]      *              0             0             1 
   114 x[11,4]      *              0             0             1 
   115 x[11,5]      *              0             0             1 
   116 x[11,6]      *              0             0             1 
   117 x[11,7]      *              0             0             1 
   118 x[11,8]      *              0             0             1 
   119 x[11,9]      *              0             0             1 
   120 x[11,10]     *              0             0             1 
   121 x[11,12]     *              0             0             1 
   122 x[12,1]      *              0             0             1 
   123 x[12,2]      *              0             0             1 
   124 x[12,3]      *              0             0             1 
   125 x[12,4]      *              0             0             1 
   126 x[12,5]      *              0             0             1 
   127 x[12,6]      *              0             0             1 
   128 x[12,7]      *              1             0             1 
   129 x[12,8]      *              0             0             1 
   130 x[12,9]      *              0             0             1 
   131 x[12,10]     *              0             0             1 
   132 x[12,11]     *              0             0             1 
   133 u[2]                        3             1               
   134 u[1]                        1             1               
   135 u[3]                       11             1               
   136 u[4]                        2             1               
   137 u[5]                        7             1               
   138 u[6]                        6             1               
   139 u[7]                        9             1               
   140 u[8]                       12             1               
   141 u[9]                        5             1               
   142 u[10]                      10             1               
   143 u[12]                       8             1               

Integer feasibility conditions:

KKT.PE: max.abs.err = 0.00e+00 on row 0
        max.rel.err = 0.00e+00 on row 0
        High quality

KKT.PB: max.abs.err = 0.00e+00 on row 0
        max.rel.err = 0.00e+00 on row 0
        High quality

End of output
